(set-logic QF_S)
(declare-fun var0 () String)
(declare-fun var1 () String)
(declare-fun var2 () String)
(declare-fun var3 () String)
(declare-fun var4 () String)
(declare-fun var5 () String)
(declare-fun var6 () String)
(declare-fun var7 () String)
(declare-fun var8 () String)
(declare-fun var9 () String)
(declare-fun var10 () String)
(declare-fun var11 () String)
(declare-fun var12 () String)
(declare-fun var13 () String)
(declare-fun var14 () String)
(declare-fun var15 () String)
(declare-fun var16 () String)
(declare-fun var17 () String)
(declare-fun var18 () String)
(declare-fun var19 () String)
(declare-fun var20 () String)
(declare-fun var21 () String)
(declare-fun var22 () String)
(declare-fun var23 () String)
(declare-fun var24 () String)
(declare-fun var25 () String)
(declare-fun var26 () String)
(declare-fun var27 () String)
(declare-fun var28 () String)
(declare-fun var29 () String)
(declare-fun var30 () String)
(declare-fun var31 () String)
(declare-fun var32 () String)
(declare-fun var33 () String)
(declare-fun var34 () String)
(declare-fun var35 () String)
(declare-fun var36 () String)
(declare-fun var37 () String)
(declare-fun var38 () String)
(declare-fun var39 () String)
(declare-fun var40 () String)
(declare-fun var41 () String)
(declare-fun var42 () String)
(declare-fun var43 () String)
(declare-fun var44 () String)
(declare-fun var45 () String)
(declare-fun var46 () String)
(declare-fun var47 () String)
(declare-fun var48 () String)
(declare-fun var49 () String)
(declare-fun var50 () String)
(declare-fun var51 () String)
(declare-fun var52 () String)
(declare-fun var53 () String)
(declare-fun var54 () String)
(declare-fun var55 () String)
(declare-fun var56 () String)
(declare-fun var57 () String)
(declare-fun var58 () String)
(declare-fun var59 () String)
(declare-fun var60 () String)
(assert (= var0 (Concat var1 var2)))
(assert (= var2 (Concat var3 var4)))
(assert (= var4 (Concat var5 var6)))
(assert (= var6 (Concat var7 var8)))
(assert (= var8 (Concat var9 var10)))
(assert (= var10 (Concat var11 var12)))
(assert (= var12 (Concat var13 var14)))
(assert (= var14 (Concat var15 var16)))
(assert (= var16 (Concat var17 var18)))
(assert (= var18 (Concat var19 var20)))
(assert (= var20 (Concat var21 var22)))
(assert (= var22 (Concat var23 var24)))
(assert (= var24 (Concat var25 var26)))
(assert (= var26 (Concat var27 var28)))
(assert (= var28 (Concat var29 var30)))
(assert (= var30 (Concat var31 var32)))
(assert (= var32 (Concat var33 var34)))
(assert (= var34 (Concat var35 var36)))
(assert (= var36 (Concat var37 var38)))
(assert (= var38 (Concat var39 var40)))
(assert (= var40 (Concat var41 var42)))
(assert (= var42 (Concat var43 var44)))
(assert (= var44 (Concat var45 var46)))
(assert (= var46 (Concat var47 var48)))
(assert (= var48 (Concat var49 var50)))
(assert (= var50 (Concat var51 var52)))
(assert (= var52 (Concat var53 var54)))
(assert (= var54 (Concat var55 var56)))
(assert (= var56 (Concat var57 var58)))
(assert (= var58 (Concat var59 var60)))
(assert (= var0 "solution"))
(assert (= "?" (CharAt var32 505)))
(assert (= "X" (CharAt var39 527)))
(assert (= "0" (CharAt var46 963)))
(assert (= "k" (CharAt var7 838)))
(assert (= "o" (CharAt var8 625)))
(assert (= "c" (CharAt var22 802)))
(assert (= "?" (CharAt var58 900)))
(assert (= "-" (CharAt var57 267)))
(assert (= "Q" (CharAt var33 166)))
(assert (= "@" (CharAt var30 861)))
(assert (= "<" (CharAt var49 564)))
(assert (= "2" (CharAt var39 291)))
(assert (= "8" (CharAt var9 843)))
(assert (= "4" (CharAt var11 829)))
(assert (= "x" (CharAt var44 261)))
(assert (= "E" (CharAt var1 457)))
(assert (= "d" (CharAt var35 935)))
(assert (= "L" (CharAt var38 681)))
(assert (= "8" (CharAt var12 920)))
(assert (= "E" (CharAt var26 716)))
(assert (= "1" (CharAt var7 253)))
(assert (= ">" (CharAt var42 814)))
(assert (= "/" (CharAt var20 411)))
(assert (= "4" (CharAt var4 204)))
(assert (= ";" (CharAt var29 703)))
(assert (= "6" (CharAt var21 204)))
(assert (= "w" (CharAt var41 222)))
(assert (= "X" (CharAt var9 899)))
(assert (= "s" (CharAt var43 42)))
(assert (= "5" (CharAt var55 31)))
(assert (= "z" (CharAt var32 992)))
(assert (= "N" (CharAt var35 510)))
(assert (= "A" (CharAt var9 506)))
(assert (= "j" (CharAt var40 196)))
(assert (= "L" (CharAt var6 833)))
(assert (= "C" (CharAt var18 247)))
(assert (= "\\" (CharAt var21 917)))
(assert (= "S" (CharAt var39 699)))
(assert (= "P" (CharAt var48 616)))
(assert (= "s" (CharAt var60 231)))
(assert (= "G" (CharAt var25 449)))
(assert (= "4" (CharAt var12 607)))
(assert (= "U" (CharAt var40 679)))
(assert (= ":" (CharAt var28 687)))
(assert (= "<" (CharAt var5 183)))
(assert (= "1" (CharAt var36 207)))
(assert (= "^" (CharAt var38 18)))
(assert (= "2" (CharAt var25 627)))
(assert (= "j" (CharAt var49 163)))
(assert (= "8" (CharAt var20 203)))
(assert (= "f" (CharAt var57 699)))
(assert (= "s" (CharAt var2 23)))
(assert (= "K" (CharAt var31 395)))
(assert (= "W" (CharAt var31 22)))
(assert (= "\"" (CharAt var46 909)))
(assert (= "d" (CharAt var56 303)))
(assert (= "q" (CharAt var6 526)))
(assert (= "-" (CharAt var48 796)))
(assert (= "T" (CharAt var2 805)))
(assert (= "+" (CharAt var47 106)))
(assert (= "E" (CharAt var27 250)))
(assert (= "c" (CharAt var42 968)))
(assert (= ">" (CharAt var49 524)))
(assert (= "4" (CharAt var55 907)))
(assert (= "5" (CharAt var56 339)))
(assert (= "t" (CharAt var41 785)))
(assert (= "B" (CharAt var43 582)))
(assert (= ";" (CharAt var8 755)))
(assert (= "k" (CharAt var32 379)))
(assert (= "Q" (CharAt var2 512)))
(assert (= "g" (CharAt var30 824)))
(assert (= "\\" (CharAt var57 729)))
(assert (= "'" (CharAt var51 272)))
(assert (= "]" (CharAt var22 522)))
(assert (= "B" (CharAt var48 189)))
(assert (= "T" (CharAt var56 819)))
(assert (= "-" (CharAt var23 524)))
(assert (= "n" (CharAt var29 714)))
(assert (= "j" (CharAt var25 281)))
(assert (= "-" (CharAt var35 645)))
(assert (= ")" (CharAt var21 835)))
(assert (= "k" (CharAt var38 722)))
(assert (= "d" (CharAt var27 899)))
(assert (= "9" (CharAt var59 614)))
(assert (= "/" (CharAt var23 557)))
(assert (= "k" (CharAt var47 420)))
(assert (= "/" (CharAt var24 392)))
(assert (= "'" (CharAt var35 698)))
(assert (= "9" (CharAt var40 793)))
(assert (= "$" (CharAt var53 361)))
(assert (= "8" (CharAt var58 636)))
(assert (= "C" (CharAt var33 950)))
(assert (= "A" (CharAt var25 204)))
(assert (= "T" (CharAt var9 693)))
(assert (= "p" (CharAt var1 159)))
(assert (= "R" (CharAt var5 1000)))
(assert (= "g" (CharAt var54 97)))
(assert (= "'" (CharAt var17 406)))
(assert (= "q" (CharAt var7 458)))
(assert (= "B" (CharAt var34 187)))
(assert (= "H" (CharAt var57 752)))
(assert (= "@" (CharAt var24 769)))
(assert (= "W" (CharAt var53 400)))
(assert (= "w" (CharAt var2 531)))
(assert (= "?" (CharAt var29 60)))
(assert (= "d" (CharAt var28 856)))
(assert (= "`" (CharAt var10 832)))
(assert (= "]" (CharAt var48 249)))
(assert (= "J" (CharAt var28 137)))
(assert (= "P" (CharAt var54 999)))
(assert (= "<" (CharAt var44 718)))
(assert (= ")" (CharAt var53 134)))
(assert (= "}" (CharAt var41 40)))
(assert (= "|" (CharAt var34 263)))
(assert (= "l" (CharAt var10 670)))
(assert (= "," (CharAt var32 823)))
(assert (= ";" (CharAt var52 384)))
(assert (= "q" (CharAt var52 702)))
(assert (= "]" (CharAt var29 316)))
(assert (= "W" (CharAt var6 965)))
(assert (= "D" (CharAt var50 243)))
(assert (= "h" (CharAt var6 891)))
(assert (= "v" (CharAt var44 781)))
(assert (= "^" (CharAt var22 956)))
(assert (= "*" (CharAt var18 447)))
(assert (= "." (CharAt var10 528)))
(assert (= "X" (CharAt var30 262)))
(assert (= "<" (CharAt var30 941)))
(assert (= "j" (CharAt var4 247)))
(assert (= "'" (CharAt var36 546)))
(assert (= "-" (CharAt var32 554)))
(assert (= "f" (CharAt var43 806)))
(assert (= "d" (CharAt var47 230)))
(assert (= "n" (CharAt var41 219)))
(assert (= "p" (CharAt var20 188)))
(assert (= "2" (CharAt var52 198)))
(assert (= "n" (CharAt var34 909)))
(assert (= "t" (CharAt var55 118)))
(assert (= "=" (CharAt var54 717)))
(assert (= "9" (CharAt var19 849)))
(assert (= "-" (CharAt var8 931)))
(assert (= "a" (CharAt var2 819)))
(assert (= "T" (CharAt var34 449)))
(assert (= "N" (CharAt var33 682)))
(assert (= "l" (CharAt var14 963)))
(assert (= "8" (CharAt var11 560)))
(assert (= "B" (CharAt var20 755)))
(assert (= "W" (CharAt var28 502)))
(assert (= "c" (CharAt var28 865)))
(assert (= "U" (CharAt var27 343)))
(assert (= "o" (CharAt var26 83)))
(assert (= "A" (CharAt var31 231)))
(assert (= ">" (CharAt var16 284)))
(assert (= "t" (CharAt var32 56)))
(assert (= "G" (CharAt var56 278)))
(assert (= ":" (CharAt var9 922)))
(assert (= "(" (CharAt var55 440)))
(assert (= "Z" (CharAt var20 427)))
(assert (= "p" (CharAt var32 711)))
(assert (= "T" (CharAt var40 860)))
(assert (= ">" (CharAt var56 590)))
(assert (= "}" (CharAt var38 614)))
(assert (= "r" (CharAt var52 694)))
(assert (= ">" (CharAt var55 848)))
(assert (= "m" (CharAt var29 755)))
(assert (= "r" (CharAt var20 353)))
(assert (= "J" (CharAt var60 147)))
(assert (= "_" (CharAt var29 716)))
(assert (= "(" (CharAt var22 62)))
(assert (= "[" (CharAt var20 819)))
(assert (= "9" (CharAt var27 804)))
(assert (= "\\" (CharAt var15 365)))
(assert (= "1" (CharAt var45 368)))
(assert (= "#" (CharAt var5 942)))
(assert (= "R" (CharAt var9 622)))
(assert (= "K" (CharAt var57 372)))
(assert (= "W" (CharAt var33 644)))
(assert (= "m" (CharAt var36 3)))
(assert (= "p" (CharAt var37 845)))
(assert (= "{" (CharAt var59 972)))
(assert (= "5" (CharAt var47 198)))
(assert (= "U" (CharAt var2 844)))
(assert (= "*" (CharAt var20 529)))
(assert (= "b" (CharAt var40 266)))
(assert (= "}" (CharAt var38 166)))
(assert (= "U" (CharAt var59 847)))
(assert (= "(" (CharAt var9 15)))
(assert (= "/" (CharAt var46 676)))
(assert (= "T" (CharAt var21 103)))
(assert (= "S" (CharAt var48 599)))
(assert (= "{" (CharAt var32 488)))
(assert (= "b" (CharAt var28 116)))
(assert (= ":" (CharAt var54 443)))
(assert (= "g" (CharAt var29 92)))
(assert (= "T" (CharAt var12 194)))
(assert (= ":" (CharAt var51 929)))
(assert (= "~" (CharAt var43 268)))
(assert (= "}" (CharAt var12 970)))
(assert (= "*" (CharAt var16 987)))
(assert (= "c" (CharAt var21 804)))
(assert (= "!" (CharAt var35 700)))
(assert (= "#" (CharAt var17 761)))
(assert (= "T" (CharAt var3 454)))
(assert (= "@" (CharAt var57 242)))
(assert (= "m" (CharAt var56 133)))
(assert (= "1" (CharAt var44 486)))
(assert (= "/" (CharAt var29 948)))
(assert (= "7" (CharAt var12 395)))
(assert (= "0" (CharAt var18 131)))
(assert (= "T" (CharAt var10 759)))
(assert (= "&" (CharAt var44 901)))
(assert (= "u" (CharAt var7 832)))
(assert (= "z" (CharAt var12 282)))
(assert (= "q" (CharAt var17 261)))
(assert (= "s" (CharAt var22 730)))
(assert (= "p" (CharAt var36 168)))
(assert (= "L" (CharAt var17 21)))
(assert (= "c" (CharAt var51 445)))
(assert (= "-" (CharAt var1 85)))
(assert (= "'" (CharAt var48 925)))
(assert (= "," (CharAt var18 868)))
(assert (= "I" (CharAt var59 670)))
(assert (= "n" (CharAt var44 444)))
(assert (= "G" (CharAt var27 110)))
(assert (= "9" (CharAt var53 960)))
(assert (= "1" (CharAt var60 180)))
(assert (= "Y" (CharAt var48 675)))
(assert (= "s" (CharAt var18 365)))
(assert (= "N" (CharAt var25 725)))
(assert (= "`" (CharAt var45 202)))
(assert (= "}" (CharAt var38 426)))
(assert (= "M" (CharAt var36 478)))
(assert (= "@" (CharAt var8 206)))
(assert (= "p" (CharAt var19 408)))
(assert (= "K" (CharAt var6 632)))
(assert (= "H" (CharAt var38 297)))
(assert (= "M" (CharAt var7 265)))
(assert (= "Z" (CharAt var56 115)))
(assert (= "n" (CharAt var21 410)))
(assert (= ")" (CharAt var59 134)))
(assert (= "9" (CharAt var0 378)))
(assert (= "=" (CharAt var18 471)))
(assert (= "2" (CharAt var51 207)))
(assert (= "_" (CharAt var15 728)))
(assert (= "6" (CharAt var26 823)))
(assert (= "[" (CharAt var28 445)))
(assert (= "t" (CharAt var43 270)))
(assert (= "y" (CharAt var22 945)))
(assert (= "r" (CharAt var13 406)))
(assert (= "\"" (CharAt var26 559)))
(assert (= ";" (CharAt var21 570)))
(assert (= "<" (CharAt var59 154)))
(assert (= "#" (CharAt var17 428)))
(assert (= "N" (CharAt var4 751)))
(assert (= "g" (CharAt var13 211)))
(assert (= "q" (CharAt var52 836)))
(assert (= "v" (CharAt var2 386)))
(assert (= ":" (CharAt var20 914)))
(assert (= "i" (CharAt var41 582)))
(assert (= "*" (CharAt var8 144)))
(assert (= "," (CharAt var43 690)))
(assert (= "]" (CharAt var50 584)))
(assert (= "@" (CharAt var16 184)))
(assert (= "5" (CharAt var46 442)))
(assert (= ">" (CharAt var45 354)))
(assert (= "F" (CharAt var0 796)))
(assert (= "i" (CharAt var41 655)))
(assert (= "x" (CharAt var6 259)))
(assert (= "W" (CharAt var13 380)))
(assert (= "O" (CharAt var60 641)))
(assert (= "i" (CharAt var24 576)))
(assert (= "W" (CharAt var46 260)))
(assert (= "." (CharAt var54 847)))
(assert (= "S" (CharAt var60 276)))
(assert (= "e" (CharAt var46 851)))
(assert (= "\\" (CharAt var58 96)))
(assert (= "~" (CharAt var9 983)))
(assert (= "5" (CharAt var54 407)))
(assert (= "I" (CharAt var2 469)))
(assert (= "*" (CharAt var17 464)))
(assert (= "@" (CharAt var8 461)))
(assert (= "t" (CharAt var46 695)))
(assert (= "j" (CharAt var1 731)))
(assert (= "U" (CharAt var22 574)))
(assert (= "M" (CharAt var5 191)))
(assert (= "p" (CharAt var26 401)))
(assert (= "L" (CharAt var56 418)))
(assert (= "S" (CharAt var34 129)))
(assert (= "W" (CharAt var59 650)))
(assert (= "x" (CharAt var31 237)))
(assert (= "}" (CharAt var55 426)))
(assert (= "F" (CharAt var8 763)))
(assert (= "E" (CharAt var31 335)))
(assert (= "9" (CharAt var43 447)))
(assert (= "q" (CharAt var36 713)))
(assert (= "`" (CharAt var43 602)))
(assert (= "V" (CharAt var33 389)))
(assert (= "K" (CharAt var56 203)))
(assert (= "0" (CharAt var16 747)))
(assert (= "b" (CharAt var48 255)))
(assert (= "M" (CharAt var29 107)))
(assert (= "H" (CharAt var37 474)))
(assert (= "L" (CharAt var8 569)))
(assert (= "\"" (CharAt var15 713)))
(assert (= "F" (CharAt var15 485)))
(assert (= "&" (CharAt var48 633)))
(assert (= "D" (CharAt var56 916)))
(assert (= "l" (CharAt var16 969)))
(assert (= "t" (CharAt var23 906)))
(assert (= "p" (CharAt var2 425)))
(assert (= "K" (CharAt var56 641)))
(assert (= "M" (CharAt var46 270)))
(assert (= "2" (CharAt var44 476)))
(assert (= "s" (CharAt var19 824)))
(assert (= "b" (CharAt var7 893)))
(assert (= "o" (CharAt var14 136)))
(assert (= "L" (CharAt var55 248)))
(assert (= "z" (CharAt var35 427)))
(assert (= "c" (CharAt var52 840)))
(assert (= "s" (CharAt var30 139)))
(assert (= "," (CharAt var50 552)))
(assert (= "C" (CharAt var1 43)))
(assert (= "&" (CharAt var48 722)))
(assert (= "5" (CharAt var33 240)))
(assert (= "=" (CharAt var8 124)))
(assert (= "=" (CharAt var41 30)))
(assert (= "N" (CharAt var6 522)))
(assert (= ")" (CharAt var48 302)))
(assert (= "R" (CharAt var54 569)))
(assert (= "/" (CharAt var1 124)))
(assert (= "r" (CharAt var25 861)))
(assert (= "O" (CharAt var25 629)))
(assert (= "C" (CharAt var55 547)))
(assert (= "4" (CharAt var16 344)))
(assert (= "_" (CharAt var9 253)))
(assert (= "F" (CharAt var0 7)))
(assert (= "+" (CharAt var30 479)))
(assert (= "8" (CharAt var57 973)))
(assert (= "A" (CharAt var30 737)))
(assert (= "0" (CharAt var48 578)))
(assert (= "m" (CharAt var38 73)))
(assert (= "]" (CharAt var6 645)))
(assert (= "h" (CharAt var53 791)))
(assert (= "l" (CharAt var54 45)))
(assert (= "}" (CharAt var7 733)))
(assert (= "U" (CharAt var23 786)))
(assert (= "1" (CharAt var58 10)))
(assert (= "^" (CharAt var42 303)))
(assert (= "5" (CharAt var1 74)))
(assert (= "o" (CharAt var16 98)))
(assert (= "C" (CharAt var31 550)))
(assert (= "c" (CharAt var29 940)))
(assert (= "," (CharAt var35 814)))
(assert (= "y" (CharAt var49 259)))
(assert (= "\\" (CharAt var5 434)))
(assert (= "?" (CharAt var2 423)))
(assert (= "s" (CharAt var22 470)))
(assert (= "0" (CharAt var38 601)))
(assert (= "&" (CharAt var27 217)))
(assert (= "O" (CharAt var54 755)))
(assert (= "c" (CharAt var28 55)))
(assert (= "o" (CharAt var60 986)))
(assert (= "L" (CharAt var30 758)))
(assert (= ";" (CharAt var31 487)))
(assert (= "C" (CharAt var3 970)))
(assert (= "Z" (CharAt var25 198)))
(assert (= "I" (CharAt var26 429)))
(assert (= "$" (CharAt var3 62)))
(assert (= "\"" (CharAt var35 765)))
(assert (= "S" (CharAt var53 250)))
(assert (= "g" (CharAt var6 221)))
(assert (= ":" (CharAt var28 139)))
(assert (= "4" (CharAt var9 172)))
(assert (= "_" (CharAt var17 273)))
(assert (= "0" (CharAt var26 348)))
(assert (= "." (CharAt var11 889)))
(assert (= "k" (CharAt var20 626)))
(assert (= "\\" (CharAt var40 1)))
(assert (= "P" (CharAt var36 359)))
(assert (= "X" (CharAt var52 349)))
(assert (= "r" (CharAt var12 340)))
(assert (= "q" (CharAt var14 707)))
(assert (= "J" (CharAt var57 778)))
(assert (= "," (CharAt var21 388)))
(assert (= ";" (CharAt var19 446)))
(assert (= "x" (CharAt var59 415)))
(assert (= "j" (CharAt var40 516)))
(assert (= "\\" (CharAt var20 155)))
(assert (= "R" (CharAt var52 992)))
(assert (= "p" (CharAt var33 179)))
(assert (= "c" (CharAt var52 468)))
(assert (= "[" (CharAt var10 490)))
(assert (= "l" (CharAt var4 288)))
(assert (= "{" (CharAt var7 6)))
(assert (= "`" (CharAt var16 750)))
(assert (= "F" (CharAt var1 886)))
(assert (= "^" (CharAt var30 114)))
(assert (= "W" (CharAt var17 932)))
(assert (= "/" (CharAt var26 454)))
(assert (= "." (CharAt var56 306)))
(assert (= ":" (CharAt var4 423)))
(assert (= "X" (CharAt var15 514)))
(assert (= "0" (CharAt var59 891)))
(assert (= "x" (CharAt var42 361)))
(assert (= "B" (CharAt var39 386)))
(assert (= "0" (CharAt var17 47)))
(assert (= "-" (CharAt var5 534)))
(assert (= ">" (CharAt var55 832)))
(assert (= ")" (CharAt var50 340)))
(assert (= "-" (CharAt var56 470)))
(assert (= "R" (CharAt var9 610)))
(assert (= "{" (CharAt var36 510)))
(assert (= "c" (CharAt var15 568)))
(assert (= "k" (CharAt var43 154)))
(assert (= "j" (CharAt var20 808)))
(assert (= "P" (CharAt var32 400)))
(assert (= "," (CharAt var13 384)))
(assert (= "P" (CharAt var43 642)))
(assert (= "3" (CharAt var20 814)))
(assert (= "$" (CharAt var48 81)))
(assert (= "b" (CharAt var39 268)))
(assert (= "X" (CharAt var9 247)))
(assert (= "~" (CharAt var44 814)))
(assert (= "I" (CharAt var7 226)))
(assert (= "9" (CharAt var3 721)))
(assert (= "0" (CharAt var35 653)))
(assert (= "u" (CharAt var39 562)))
(assert (= "d" (CharAt var29 772)))
(assert (= "?" (CharAt var55 133)))
(assert (= "B" (CharAt var9 740)))
(assert (= "{" (CharAt var46 915)))
(assert (= "&" (CharAt var12 544)))
(assert (= "I" (CharAt var31 836)))
(assert (= "#" (CharAt var31 632)))
(assert (= "4" (CharAt var44 397)))
(assert (= "p" (CharAt var40 227)))
(assert (= "2" (CharAt var17 890)))
(assert (= "+" (CharAt var29 27)))
(assert (= "v" (CharAt var34 835)))
(assert (= "}" (CharAt var9 804)))
(assert (= "P" (CharAt var4 499)))
(assert (= "+" (CharAt var29 898)))
(assert (= "W" (CharAt var4 417)))
(assert (= "g" (CharAt var37 835)))
(assert (= "a" (CharAt var0 780)))
(assert (= "z" (CharAt var20 833)))
(assert (= "e" (CharAt var21 596)))
(assert (= "_" (CharAt var9 969)))
(assert (= "u" (CharAt var25 199)))
(assert (= "," (CharAt var35 896)))
(assert (= "K" (CharAt var48 865)))
(assert (= "<" (CharAt var38 802)))
(assert (= "2" (CharAt var42 621)))
(assert (= "?" (CharAt var40 97)))
(assert (= ":" (CharAt var41 36)))
(assert (= "%" (CharAt var43 291)))
(assert (= "b" (CharAt var28 29)))
(assert (= "@" (CharAt var57 904)))
(assert (= "Z" (CharAt var5 451)))
(assert (= "p" (CharAt var31 351)))
(assert (= "9" (CharAt var4 743)))
(assert (= "Z" (CharAt var18 454)))
(assert (= "C" (CharAt var0 914)))
(assert (= "/" (CharAt var18 243)))
(assert (= "c" (CharAt var48 699)))
(assert (= "8" (CharAt var23 770)))
(assert (= "j" (CharAt var43 597)))
(assert (= "9" (CharAt var30 748)))
(assert (= "|" (CharAt var45 483)))
(assert (= "$" (CharAt var42 847)))
(assert (= "p" (CharAt var33 517)))
(assert (= "0" (CharAt var25 207)))
(assert (= "G" (CharAt var54 745)))
(assert (= "c" (CharAt var12 62)))
(assert (= "e" (CharAt var16 720)))
(assert (= "B" (CharAt var11 166)))
(assert (= "~" (CharAt var48 906)))
(assert (= "^" (CharAt var2 664)))
(assert (= "r" (CharAt var60 774)))
(assert (= "@" (CharAt var14 831)))
(assert (= "Z" (CharAt var57 129)))
(assert (= "}" (CharAt var8 836)))
(assert (= "V" (CharAt var51 436)))
(assert (= "V" (CharAt var5 594)))
(assert (= "Z" (CharAt var15 71)))
(assert (= "U" (CharAt var29 86)))
(assert (= "t" (CharAt var12 906)))
(assert (= "?" (CharAt var11 110)))
(assert (= "R" (CharAt var58 275)))
(assert (= "Z" (CharAt var30 321)))
(assert (= "`" (CharAt var33 948)))
(assert (= "w" (CharAt var41 481)))
(assert (= "-" (CharAt var0 412)))
(assert (= "*" (CharAt var36 485)))
(assert (= "K" (CharAt var13 420)))
(assert (= "p" (CharAt var5 285)))
(assert (= "=" (CharAt var45 3)))
(assert (= "l" (CharAt var37 802)))
(assert (= "5" (CharAt var54 608)))
(assert (= ")" (CharAt var15 712)))
(assert (= "u" (CharAt var56 264)))
(assert (= "l" (CharAt var11 673)))
(assert (= "@" (CharAt var14 183)))
(assert (= "i" (CharAt var56 651)))
(assert (= "z" (CharAt var27 803)))
(assert (= ":" (CharAt var57 938)))
(assert (= "/" (CharAt var45 714)))
(assert (= "w" (CharAt var55 885)))
(assert (= "F" (CharAt var44 88)))
(assert (= "A" (CharAt var57 651)))
(assert (= "6" (CharAt var33 614)))
(assert (= "z" (CharAt var33 812)))
(assert (= "g" (CharAt var20 140)))
(assert (= "P" (CharAt var35 482)))
(assert (= "a" (CharAt var45 447)))
(assert (= "e" (CharAt var54 240)))
(assert (= "E" (CharAt var24 591)))
(assert (= "$" (CharAt var18 150)))
(assert (= "\\" (CharAt var39 20)))
(assert (= "\"" (CharAt var45 698)))
(assert (= "(" (CharAt var19 530)))
(assert (= "Z" (CharAt var26 92)))
(assert (= "'" (CharAt var45 141)))
(assert (= "5" (CharAt var47 314)))
(assert (= "{" (CharAt var53 955)))
(assert (= "." (CharAt var1 506)))
(assert (= "-" (CharAt var60 582)))
(assert (= "7" (CharAt var2 210)))
(assert (= "u" (CharAt var13 141)))
(assert (= "U" (CharAt var5 12)))
(assert (= "U" (CharAt var17 361)))
(assert (= "n" (CharAt var36 996)))
(assert (= "U" (CharAt var29 146)))
(assert (= "^" (CharAt var25 361)))
(assert (= "f" (CharAt var31 985)))
(assert (= "g" (CharAt var23 179)))
(assert (= "S" (CharAt var11 562)))
(assert (= "r" (CharAt var41 211)))
(assert (= "l" (CharAt var23 797)))
(assert (= "d" (CharAt var40 678)))
(assert (= ":" (CharAt var4 959)))
(assert (= "b" (CharAt var58 721)))
(assert (= "S" (CharAt var17 199)))
(assert (= "4" (CharAt var15 692)))
(assert (= "(" (CharAt var13 319)))
(assert (= "w" (CharAt var51 162)))
(assert (= "c" (CharAt var44 187)))
(assert (= "@" (CharAt var6 951)))
(assert (= "(" (CharAt var35 902)))
(assert (= "V" (CharAt var0 609)))
(assert (= "\\" (CharAt var9 401)))
(assert (= "r" (CharAt var5 890)))
(assert (= "%" (CharAt var3 452)))
(assert (= "^" (CharAt var35 416)))
(assert (= "_" (CharAt var0 116)))
(assert (= "v" (CharAt var21 425)))
(assert (= ")" (CharAt var47 80)))
(assert (= "Y" (CharAt var17 61)))
(assert (= "3" (CharAt var25 120)))
(assert (= "(" (CharAt var25 832)))
(assert (= "S" (CharAt var60 391)))
(assert (= ")" (CharAt var28 356)))
(assert (= "=" (CharAt var18 227)))
(assert (= "n" (CharAt var13 891)))
(assert (= "1" (CharAt var60 645)))
(assert (= "+" (CharAt var56 358)))
(assert (= "\"" (CharAt var32 478)))
(assert (= ")" (CharAt var51 312)))
(assert (= "," (CharAt var13 84)))
(assert (= "g" (CharAt var19 688)))
(assert (= "r" (CharAt var10 453)))
(assert (= "+" (CharAt var58 184)))
(assert (= "," (CharAt var53 290)))
(assert (= "$" (CharAt var47 506)))
(assert (= "}" (CharAt var56 655)))
(assert (= "o" (CharAt var46 418)))
(assert (= "C" (CharAt var39 301)))
(assert (= ">" (CharAt var12 843)))
(assert (= "G" (CharAt var0 520)))
(assert (= "w" (CharAt var40 848)))
(assert (= "r" (CharAt var21 147)))
(assert (= "," (CharAt var33 689)))
(assert (= "y" (CharAt var30 639)))
(assert (= "g" (CharAt var23 386)))
(assert (= "P" (CharAt var13 1)))
(assert (= "C" (CharAt var59 555)))
(assert (= "%" (CharAt var6 898)))
(assert (= "P" (CharAt var30 924)))
(assert (= "C" (CharAt var38 429)))
(assert (= "D" (CharAt var16 194)))
(assert (= "$" (CharAt var44 918)))
(assert (= "a" (CharAt var26 508)))
(assert (= "U" (CharAt var9 755)))
(assert (= "\"" (CharAt var37 271)))
(assert (= "i" (CharAt var33 930)))
(assert (= "C" (CharAt var39 3)))
(assert (= "3" (CharAt var0 975)))
(assert (= "!" (CharAt var10 355)))
(assert (= "J" (CharAt var52 366)))
(assert (= "m" (CharAt var59 199)))
(assert (= "}" (CharAt var48 228)))
(assert (= "Y" (CharAt var13 451)))
(assert (= ":" (CharAt var1 741)))
(assert (= "#" (CharAt var56 62)))
(assert (= "]" (CharAt var31 142)))
(assert (= "F" (CharAt var0 712)))
(assert (= "8" (CharAt var46 566)))
(assert (= "z" (CharAt var59 359)))
(assert (= "6" (CharAt var30 138)))
(assert (= "A" (CharAt var18 947)))
(assert (= "S" (CharAt var54 887)))
(assert (= "+" (CharAt var7 519)))
(assert (= "." (CharAt var2 999)))
(assert (= "s" (CharAt var31 394)))
(assert (= "X" (CharAt var15 318)))
(assert (= "^" (CharAt var42 945)))
(assert (= "$" (CharAt var0 769)))
(assert (= "S" (CharAt var44 372)))
(assert (= "w" (CharAt var10 434)))
(assert (= "y" (CharAt var33 202)))
(assert (= "Y" (CharAt var14 364)))
(assert (= "v" (CharAt var23 25)))
(assert (= "c" (CharAt var48 230)))
(assert (= "1" (CharAt var48 527)))
(assert (= "J" (CharAt var46 498)))
(assert (= "Z" (CharAt var17 945)))
(assert (= "T" (CharAt var27 909)))
(assert (= "D" (CharAt var17 445)))
(assert (= "8" (CharAt var19 486)))
(assert (= "b" (CharAt var43 679)))
(assert (= "H" (CharAt var30 759)))
(assert (= "0" (CharAt var19 249)))
(assert (= "/" (CharAt var34 920)))
(assert (= "6" (CharAt var46 796)))
(assert (= "F" (CharAt var11 561)))
(assert (= "&" (CharAt var33 235)))
(assert (= "!" (CharAt var25 45)))
(assert (= "!" (CharAt var6 137)))
(assert (= ")" (CharAt var38 17)))
(assert (= "a" (CharAt var17 893)))
(assert (= ")" (CharAt var42 94)))
(assert (= "1" (CharAt var57 254)))
(assert (= "^" (CharAt var1 719)))
(assert (= "\\" (CharAt var3 426)))
(assert (= ":" (CharAt var48 594)))
(assert (= ">" (CharAt var58 318)))
(assert (= "V" (CharAt var49 938)))
(assert (= "p" (CharAt var8 853)))
(assert (= "'" (CharAt var40 236)))
(assert (= ":" (CharAt var33 374)))
(assert (= "{" (CharAt var6 362)))
(assert (= "0" (CharAt var0 675)))
(assert (= "!" (CharAt var46 648)))
(assert (= "j" (CharAt var5 184)))
(assert (= "`" (CharAt var23 195)))
(assert (= "~" (CharAt var17 312)))
(assert (= "?" (CharAt var37 172)))
(assert (= ">" (CharAt var24 914)))
(assert (= "`" (CharAt var1 319)))
(assert (= ";" (CharAt var5 74)))
(assert (= "o" (CharAt var18 216)))
(assert (= "p" (CharAt var43 199)))
(assert (= "l" (CharAt var28 782)))
(assert (= "y" (CharAt var37 457)))
(assert (= "L" (CharAt var33 427)))
(assert (= "3" (CharAt var57 833)))
(assert (= "L" (CharAt var55 931)))
(assert (= "V" (CharAt var17 17)))
(assert (= "C" (CharAt var17 976)))
(assert (= "[" (CharAt var7 692)))
(assert (= "3" (CharAt var31 951)))
(assert (= "h" (CharAt var56 241)))
(assert (= "H" (CharAt var45 405)))
(assert (= "Y" (CharAt var53 210)))
(assert (= "r" (CharAt var56 945)))
(assert (= "W" (CharAt var40 946)))
(assert (= "}" (CharAt var6 480)))
(assert (= "'" (CharAt var58 320)))
(assert (= "Z" (CharAt var31 813)))
(assert (= "|" (CharAt var24 555)))
(assert (= "~" (CharAt var7 837)))
(assert (= "Y" (CharAt var36 326)))
(assert (= "r" (CharAt var23 285)))
(assert (= "-" (CharAt var32 877)))
(assert (= "<" (CharAt var34 768)))
(assert (= "," (CharAt var35 891)))
(assert (= "D" (CharAt var31 90)))
(assert (= "p" (CharAt var40 846)))
(assert (= "p" (CharAt var16 250)))
(assert (= "M" (CharAt var30 620)))
(assert (= "e" (CharAt var8 329)))
(assert (= "?" (CharAt var17 172)))
(assert (= "p" (CharAt var6 570)))
(assert (= "J" (CharAt var39 484)))
(assert (= "g" (CharAt var60 837)))
(assert (= "1" (CharAt var25 502)))
(assert (= "9" (CharAt var47 980)))
(assert (= "`" (CharAt var22 521)))
(assert (= ">" (CharAt var20 560)))
(assert (= "p" (CharAt var32 755)))
(assert (= "j" (CharAt var53 415)))
(assert (= "T" (CharAt var11 327)))
(assert (= "`" (CharAt var39 552)))
(assert (= "l" (CharAt var11 463)))
(assert (= "5" (CharAt var26 669)))
(assert (= "O" (CharAt var44 777)))
(assert (= "p" (CharAt var0 845)))
(assert (= "1" (CharAt var25 47)))
(assert (= "E" (CharAt var7 587)))
(assert (= ":" (CharAt var28 702)))
(assert (= "Y" (CharAt var24 797)))
(assert (= "v" (CharAt var29 700)))
(assert (= "m" (CharAt var59 821)))
(assert (= "g" (CharAt var36 774)))
(assert (= "]" (CharAt var41 396)))
(assert (= "U" (CharAt var45 376)))
(assert (= "o" (CharAt var42 191)))
(assert (= "[" (CharAt var31 859)))
(assert (= "T" (CharAt var47 280)))
(assert (= "m" (CharAt var34 602)))
(assert (= "|" (CharAt var42 294)))
(assert (= "U" (CharAt var44 407)))
(assert (= "T" (CharAt var44 630)))
(assert (= "N" (CharAt var51 135)))
(assert (= "r" (CharAt var4 658)))
(assert (= ":" (CharAt var20 152)))
(assert (= "Z" (CharAt var3 265)))
(assert (= "N" (CharAt var56 574)))
(assert (= "2" (CharAt var25 56)))
(assert (= "}" (CharAt var5 570)))
(assert (= ":" (CharAt var22 782)))
(assert (= "W" (CharAt var32 176)))
(assert (= "I" (CharAt var37 266)))
(assert (= "f" (CharAt var20 638)))
(assert (= "?" (CharAt var21 710)))
(assert (= "z" (CharAt var4 890)))
(assert (= "F" (CharAt var38 596)))
(assert (= "p" (CharAt var3 698)))
(assert (= "[" (CharAt var24 893)))
(assert (= "4" (CharAt var54 440)))
(assert (= "Z" (CharAt var6 298)))
(assert (= "'" (CharAt var15 487)))
(assert (= "u" (CharAt var55 116)))
(assert (= "w" (CharAt var15 827)))
(assert (= ";" (CharAt var10 202)))
(assert (= "n" (CharAt var32 910)))
(assert (= "~" (CharAt var13 132)))
(assert (= "N" (CharAt var44 944)))
(assert (= "'" (CharAt var33 53)))
(assert (= "E" (CharAt var29 953)))
(assert (= "W" (CharAt var5 221)))
(assert (= "%" (CharAt var12 933)))
(assert (= "H" (CharAt var30 383)))
(assert (= "j" (CharAt var23 112)))
(assert (= "E" (CharAt var31 816)))
(assert (= "7" (CharAt var7 264)))
(assert (= "O" (CharAt var25 238)))
(assert (= "?" (CharAt var32 688)))
(assert (= "n" (CharAt var55 315)))
(assert (= "O" (CharAt var8 317)))
(assert (= "S" (CharAt var24 68)))
(assert (= "W" (CharAt var40 460)))
(assert (= "@" (CharAt var21 231)))
(assert (= "<" (CharAt var51 269)))
(assert (= "/" (CharAt var16 623)))
(assert (= "X" (CharAt var29 977)))
(assert (= "!" (CharAt var2 681)))
(assert (= "W" (CharAt var21 787)))
(assert (= "{" (CharAt var32 491)))
(assert (= "N" (CharAt var52 33)))
(assert (= "V" (CharAt var15 240)))
(assert (= "j" (CharAt var12 789)))
(assert (= "o" (CharAt var33 756)))
(assert (= "j" (CharAt var59 430)))
(assert (= "'" (CharAt var48 720)))
(assert (= "g" (CharAt var15 652)))
(assert (= "[" (CharAt var13 235)))
(assert (= "T" (CharAt var10 139)))
(assert (= "/" (CharAt var24 674)))
(assert (= "r" (CharAt var49 976)))
(assert (= "|" (CharAt var48 428)))
(assert (= "9" (CharAt var14 459)))
(assert (= "p" (CharAt var29 257)))
(assert (= "_" (CharAt var21 173)))
(assert (= "p" (CharAt var51 912)))
(assert (= "<" (CharAt var34 398)))
(assert (= "h" (CharAt var42 456)))
(assert (= "!" (CharAt var27 783)))
(assert (= "w" (CharAt var30 899)))
(assert (= "B" (CharAt var55 811)))
(assert (= "9" (CharAt var11 720)))
(assert (= "b" (CharAt var54 836)))
(assert (= "~" (CharAt var1 6)))
(assert (= "v" (CharAt var6 485)))
(assert (= "G" (CharAt var35 980)))
(assert (= "H" (CharAt var57 548)))
(assert (= "}" (CharAt var38 425)))
(assert (= "3" (CharAt var46 178)))
(assert (= "6" (CharAt var60 990)))
(assert (= "X" (CharAt var60 375)))
(assert (= "T" (CharAt var11 756)))
(assert (= "3" (CharAt var41 14)))
(assert (= "2" (CharAt var30 295)))
(assert (= "." (CharAt var0 271)))
(assert (= "G" (CharAt var56 319)))
(assert (= "%" (CharAt var0 545)))
(assert (= "d" (CharAt var31 820)))
(assert (= "0" (CharAt var57 880)))
(assert (= "0" (CharAt var51 547)))
(assert (= "k" (CharAt var1 747)))
(assert (= "@" (CharAt var50 707)))
(assert (= "k" (CharAt var14 951)))
(assert (= "J" (CharAt var52 863)))
(assert (= "/" (CharAt var14 436)))
(assert (= "i" (CharAt var58 216)))
(assert (= "j" (CharAt var49 961)))
(assert (= "%" (CharAt var3 449)))
(assert (= "#" (CharAt var30 26)))
(assert (= "(" (CharAt var26 205)))
(assert (= "u" (CharAt var28 171)))
(assert (= ")" (CharAt var56 389)))
(assert (= "k" (CharAt var11 669)))
(assert (= "Z" (CharAt var20 571)))
(assert (= "K" (CharAt var60 123)))
(assert (= "y" (CharAt var17 197)))
(assert (= "J" (CharAt var32 949)))
(assert (= "K" (CharAt var8 787)))
(assert (= "X" (CharAt var5 305)))
(assert (= ">" (CharAt var44 315)))
(assert (= "?" (CharAt var31 489)))
(assert (= "S" (CharAt var43 554)))
(assert (= "e" (CharAt var10 465)))
(assert (= "2" (CharAt var56 749)))
(assert (= "\"" (CharAt var51 233)))
(assert (= "a" (CharAt var35 199)))
(assert (= "%" (CharAt var47 996)))
(assert (= "M" (CharAt var20 234)))
(assert (= "S" (CharAt var54 958)))
(assert (= "I" (CharAt var18 320)))
(assert (= "S" (CharAt var22 835)))
(assert (= "$" (CharAt var42 983)))
(assert (= "I" (CharAt var38 726)))
(assert (= "W" (CharAt var30 214)))
(assert (= "v" (CharAt var11 897)))
(assert (= "D" (CharAt var48 9)))
(assert (= "F" (CharAt var8 153)))
(assert (= "b" (CharAt var45 307)))
(assert (= "w" (CharAt var59 815)))
(assert (= "+" (CharAt var41 597)))
(assert (= "j" (CharAt var24 81)))
(assert (= "M" (CharAt var33 437)))
(assert (= "8" (CharAt var9 419)))
(assert (= "z" (CharAt var9 204)))
(assert (= "w" (CharAt var18 937)))
(assert (= ")" (CharAt var19 710)))
(assert (= "r" (CharAt var20 416)))
(assert (= "}" (CharAt var55 181)))
(assert (= "=" (CharAt var60 540)))
(assert (= "X" (CharAt var40 859)))
(assert (= "k" (CharAt var60 614)))
(assert (= "-" (CharAt var19 716)))
(assert (= "4" (CharAt var21 796)))
(assert (= "B" (CharAt var23 114)))
(assert (= "o" (CharAt var47 663)))
(assert (= "q" (CharAt var10 773)))
(assert (= "3" (CharAt var33 736)))
(assert (= "{" (CharAt var35 188)))
(assert (= "u" (CharAt var59 137)))
(assert (= "X" (CharAt var4 849)))
(assert (= "t" (CharAt var52 667)))
(assert (= "," (CharAt var2 770)))
(assert (= "G" (CharAt var59 407)))
(assert (= "Q" (CharAt var30 280)))
(assert (= "B" (CharAt var18 33)))
(assert (= "-" (CharAt var17 64)))
(assert (= "X" (CharAt var54 345)))
(assert (= "c" (CharAt var39 192)))
(assert (= "o" (CharAt var40 896)))
(assert (= ";" (CharAt var51 811)))
(assert (= "," (CharAt var23 787)))
(assert (= "o" (CharAt var25 640)))
(assert (= "m" (CharAt var49 225)))
(assert (= "}" (CharAt var37 806)))
(assert (= "Q" (CharAt var23 90)))
(assert (= "`" (CharAt var38 500)))
(assert (= "j" (CharAt var29 596)))
(assert (= "X" (CharAt var37 264)))
(assert (= "z" (CharAt var51 8)))
(assert (= "k" (CharAt var7 71)))
(assert (= "w" (CharAt var31 286)))
(assert (= "f" (CharAt var26 188)))
(assert (= "D" (CharAt var7 123)))
(assert (= "%" (CharAt var2 828)))
(assert (= "J" (CharAt var56 569)))
(assert (= "/" (CharAt var4 837)))
(assert (= "h" (CharAt var5 509)))
(assert (= ":" (CharAt var47 216)))
(assert (= "'" (CharAt var52 418)))
(assert (= "T" (CharAt var46 954)))
(assert (= "3" (CharAt var23 568)))
(assert (= "s" (CharAt var18 306)))
(assert (= "5" (CharAt var53 680)))
(assert (= "t" (CharAt var26 984)))
(assert (= "p" (CharAt var44 76)))
(assert (= "Q" (CharAt var19 830)))
(assert (= "`" (CharAt var16 364)))
(assert (= "D" (CharAt var41 834)))
(assert (= "Z" (CharAt var23 701)))
(assert (= "7" (CharAt var46 874)))
(assert (= "1" (CharAt var21 329)))
(assert (= "k" (CharAt var48 681)))
(assert (= "3" (CharAt var8 503)))
(assert (= "d" (CharAt var18 551)))
(assert (= "z" (CharAt var58 960)))
(assert (= "y" (CharAt var53 111)))
(assert (= "k" (CharAt var54 308)))
(assert (= "4" (CharAt var18 36)))
(assert (= "o" (CharAt var29 150)))
(assert (= "o" (CharAt var26 547)))
(assert (= "t" (CharAt var19 229)))
(assert (= "." (CharAt var33 328)))
(assert (= "K" (CharAt var24 634)))
(assert (= "#" (CharAt var46 958)))
(assert (= "o" (CharAt var16 166)))
(assert (= "b" (CharAt var22 650)))
(assert (= "?" (CharAt var58 731)))
(assert (= ";" (CharAt var29 367)))
(assert (= "^" (CharAt var16 476)))
(assert (= ")" (CharAt var45 732)))
(assert (= "S" (CharAt var4 529)))
(assert (= "\\" (CharAt var2 59)))
(assert (= "A" (CharAt var20 649)))
(assert (= "|" (CharAt var53 108)))
(assert (= "+" (CharAt var3 988)))
(assert (= "c" (CharAt var45 104)))
(assert (= "f" (CharAt var37 411)))
(assert (= "y" (CharAt var32 512)))
(assert (= "*" (CharAt var5 423)))
(assert (= "~" (CharAt var50 78)))
(assert (= "N" (CharAt var20 575)))
(assert (= "K" (CharAt var18 981)))
(assert (= "p" (CharAt var44 614)))
(assert (= "h" (CharAt var33 864)))
(assert (= ")" (CharAt var39 655)))
(assert (= "O" (CharAt var7 70)))
(assert (= "C" (CharAt var12 541)))
(assert (= "3" (CharAt var16 290)))
(assert (= "^" (CharAt var25 154)))
(assert (= "{" (CharAt var40 977)))
(assert (= ">" (CharAt var50 411)))
(assert (= "q" (CharAt var51 290)))
(assert (= "}" (CharAt var43 374)))
(assert (= "h" (CharAt var0 843)))
(assert (= "T" (CharAt var8 639)))
(assert (= "[" (CharAt var47 639)))
(assert (= "d" (CharAt var32 188)))
(assert (= "W" (CharAt var16 443)))
(assert (= "?" (CharAt var4 37)))
(assert (= "/" (CharAt var54 575)))
(assert (= "u" (CharAt var17 898)))
(assert (= "s" (CharAt var34 695)))
(assert (= "Q" (CharAt var49 484)))
(assert (= "H" (CharAt var7 151)))
(assert (= "t" (CharAt var16 605)))
(assert (= "Z" (CharAt var54 811)))
(assert (= "<" (CharAt var0 902)))
(assert (= "2" (CharAt var11 566)))
(assert (= "b" (CharAt var40 675)))
(assert (= "$" (CharAt var9 208)))
(assert (= "X" (CharAt var8 62)))
(assert (= "G" (CharAt var41 65)))
(assert (= "," (CharAt var52 91)))
(assert (= "!" (CharAt var35 721)))
(assert (= "(" (CharAt var43 114)))
(assert (= "o" (CharAt var52 612)))
(assert (= "@" (CharAt var53 796)))
(assert (= "?" (CharAt var58 30)))
(assert (= "e" (CharAt var15 974)))
(assert (= "_" (CharAt var17 440)))
(assert (= ";" (CharAt var21 411)))
(assert (= "i" (CharAt var45 311)))
(assert (= "S" (CharAt var7 366)))
(assert (= "k" (CharAt var17 561)))
(assert (= "Q" (CharAt var5 243)))
(assert (= "#" (CharAt var28 985)))
(assert (= "d" (CharAt var44 140)))
(assert (= "O" (CharAt var38 277)))
(assert (= "!" (CharAt var47 415)))
(assert (= "," (CharAt var18 498)))
(assert (= "k" (CharAt var3 614)))
(assert (= "E" (CharAt var20 335)))
(assert (= "I" (CharAt var60 501)))
(assert (= ";" (CharAt var2 754)))
(assert (= "j" (CharAt var52 442)))
(assert (= "w" (CharAt var1 236)))
(assert (= "j" (CharAt var36 506)))
(assert (= "<" (CharAt var18 138)))
(assert (= "j" (CharAt var38 67)))
(assert (= "$" (CharAt var42 107)))
(assert (= "J" (CharAt var18 597)))
(assert (= "%" (CharAt var33 795)))
(check-sat)